25 2
25 1000
20
30
10
40
20
20
20
10
20
30
40
20
10
10
20
20
20
20
40
10
10
40
30
10
20
40 50 0 960 0 0
25 85 673 793 10 3
22 75 152 272 10 3
22 85 471 591 10 3
20 80 644 764 10 1
20 85 73 193 10 2
18 75 388 508 10 1
15 75 300 420 10 3
15 80 367 487 10 2
10 35 371 491 10 3
10 40 519 639 10 1
8 40 195 315 10 2
8 45 223 343 10 1
5 35 653 773 10 2
5 45 35 155 10 3
2 40 174 294 10 1
0 40 255 375 10 3
0 45 703 823 10 1
44 5 335 455 10 1
42 10 254 374 10 3
42 15 537 657 10 2
40 5 215 335 10 1
40 15 375 495 10 2
38 5 201 321 10 2
38 15 681 801 10 2
35 5 784 904 10 2
36 31 0 960 5 4
29 81 0 960 5 4
0 1
0 1
0 1
0 0
0 1
0 0
0 1
0 1
1 0
0 0
1 0
0 0
1 0
1 0
0 0
1 0
0 0
0 0
1 0
1 0
0 0
1 0
1 0
1 0
1 0
